(base) C:\Users\alega\asp>clingo queens.lp --const n=4 0
clingo version 5.5.0
Reading from queens.lp
Solving...
Answer: 1
row(1) row(2) row(3) row(4) col(1) col(2) col(3) col(4) queen(1,2) queen(2,4) queen(3,1) queen(4,3)
Answer: 2
row(1) row(2) row(3) row(4) col(1) col(2) col(3) col(4) queen(1,3) queen(2,1) queen(3,4) queen(4,2)
SATISFIABLE

Models       : 2
Calls        : 1
Time         : 0.014s (Solving: 0.01s 1st Model: 0.00s Unsat: 0.00s)
CPU Time     : 0.000s